
Gurobi 11.0.3 (mac64[arm], gurobi_cl) logging started Wed Feb 12 16:48:00 2025

Set parameter Username
Set parameter LogFile to value "output/gurobi_ilp_1.log"
Using license file /Users/aaronslobodin/gurobi.lic
Academic license - for non-commercial use only - expires 2025-12-30

Gurobi Optimizer version 11.0.3 build v11.0.3rc0 (mac64[arm] - Darwin 24.2.0 24C101)
Copyright (c) 2024, Gurobi Optimization, LLC

Read LP format model from file /var/folders/xx/fsz3wvqx27n46ckqdt6dl4gm0000gn/T/d3071c400287414b8a33b0b4eeb52680-pulp.lp
Reading time = 0.00 seconds
OBJ: 113 rows, 90 columns, 793 nonzeros

CPU model: Apple M1 Pro
Thread count: 10 physical cores, 10 logical processors, using up to 10 threads

Optimize a model with 113 rows, 90 columns and 793 nonzeros
Model fingerprint: 0x83ba57cd
Variable types: 0 continuous, 90 integer (84 binary)
Coefficient statistics:
  Matrix range     [5e-01, 5e+00]
  Objective range  [1e+00, 1e+00]
  Bounds range     [1e+00, 1e+00]
  RHS range        [1e+00, 2e+01]
Presolve removed 3 rows and 16 columns
Presolve time: 0.00s
Presolved: 110 rows, 74 columns, 621 nonzeros
Variable types: 0 continuous, 74 integer (71 binary)

Root relaxation: objective 3.533333e+01, 22 iterations, 0.00 seconds (0.00 work units)

    Nodes    |    Current Node    |     Objective Bounds      |     Work
 Expl Unexpl |  Obj  Depth IntInf | Incumbent    BestBd   Gap | It/Node Time

     0     0   35.33333    0    5          -   35.33333      -     -    0s
     0     0   35.00000    0    6          -   35.00000      -     -    0s
H    0     0                      33.0000000   35.00000  6.06%     -    0s
     0     0   35.00000    0    8   33.00000   35.00000  6.06%     -    0s
     0     0   34.00000    0    8   33.00000   34.00000  3.03%     -    0s
     0     0   34.00000    0    8   33.00000   34.00000  3.03%     -    0s
     0     0   34.00000    0    4   33.00000   34.00000  3.03%     -    0s
     0     0   34.00000    0    4   33.00000   34.00000  3.03%     -    0s
     0     0   34.00000    0    8   33.00000   34.00000  3.03%     -    0s
     0     0   34.00000    0    6   33.00000   34.00000  3.03%     -    0s
     0     0   34.00000    0    8   33.00000   34.00000  3.03%     -    0s
     0     0   34.00000    0   26   33.00000   34.00000  3.03%     -    0s
     0     0   34.00000    0   26   33.00000   34.00000  3.03%     -    0s
     0     2   34.00000    0   22   33.00000   34.00000  3.03%     -    0s

Cutting planes:
  Gomory: 9
  MIR: 5
  Zero half: 1

Explored 5 nodes (213 simplex iterations) in 0.04 seconds (0.02 work units)
Thread count was 10 (of 10 available processors)

Solution count 1: 33

Optimal solution found (tolerance 1.00e-04)
Best objective 3.300000000000e+01, best bound 3.300000000000e+01, gap 0.0000%

Wrote result file '/var/folders/xx/fsz3wvqx27n46ckqdt6dl4gm0000gn/T/d3071c400287414b8a33b0b4eeb52680-pulp.sol'


Gurobi 11.0.3 (mac64[arm], gurobi_cl) logging started Wed Feb 12 16:50:12 2025

Set parameter Username
Set parameter LogFile to value "output/gurobi_ilp_1.log"
Using license file /Users/aaronslobodin/gurobi.lic
Academic license - for non-commercial use only - expires 2025-12-30

Gurobi Optimizer version 11.0.3 build v11.0.3rc0 (mac64[arm] - Darwin 24.2.0 24C101)
Copyright (c) 2024, Gurobi Optimization, LLC

Read LP format model from file /var/folders/xx/fsz3wvqx27n46ckqdt6dl4gm0000gn/T/3a83e5cf02dd4a8b8cd7b2ce8680aa75-pulp.lp
Reading time = 0.00 seconds
OBJ: 113 rows, 90 columns, 793 nonzeros

CPU model: Apple M1 Pro
Thread count: 10 physical cores, 10 logical processors, using up to 10 threads

Optimize a model with 113 rows, 90 columns and 793 nonzeros
Model fingerprint: 0x83ba57cd
Variable types: 0 continuous, 90 integer (84 binary)
Coefficient statistics:
  Matrix range     [5e-01, 5e+00]
  Objective range  [1e+00, 1e+00]
  Bounds range     [1e+00, 1e+00]
  RHS range        [1e+00, 2e+01]
Presolve removed 3 rows and 16 columns
Presolve time: 0.00s
Presolved: 110 rows, 74 columns, 621 nonzeros
Variable types: 0 continuous, 74 integer (71 binary)

Root relaxation: objective 3.533333e+01, 22 iterations, 0.00 seconds (0.00 work units)

    Nodes    |    Current Node    |     Objective Bounds      |     Work
 Expl Unexpl |  Obj  Depth IntInf | Incumbent    BestBd   Gap | It/Node Time

     0     0   35.33333    0    5          -   35.33333      -     -    0s
     0     0   35.00000    0    6          -   35.00000      -     -    0s
H    0     0                      33.0000000   35.00000  6.06%     -    0s
     0     0   35.00000    0    8   33.00000   35.00000  6.06%     -    0s
     0     0   34.00000    0    8   33.00000   34.00000  3.03%     -    0s
     0     0   34.00000    0    8   33.00000   34.00000  3.03%     -    0s
     0     0   34.00000    0    4   33.00000   34.00000  3.03%     -    0s
     0     0   34.00000    0    4   33.00000   34.00000  3.03%     -    0s
     0     0   34.00000    0    8   33.00000   34.00000  3.03%     -    0s
     0     0   34.00000    0    6   33.00000   34.00000  3.03%     -    0s
     0     0   34.00000    0    8   33.00000   34.00000  3.03%     -    0s
     0     0   34.00000    0   26   33.00000   34.00000  3.03%     -    0s
     0     0   34.00000    0   26   33.00000   34.00000  3.03%     -    0s
     0     2   34.00000    0   22   33.00000   34.00000  3.03%     -    0s

Cutting planes:
  Gomory: 9
  MIR: 5
  Zero half: 1

Explored 5 nodes (213 simplex iterations) in 0.04 seconds (0.02 work units)
Thread count was 10 (of 10 available processors)

Solution count 1: 33 

Optimal solution found (tolerance 1.00e-04)
Best objective 3.300000000000e+01, best bound 3.300000000000e+01, gap 0.0000%

Wrote result file '/var/folders/xx/fsz3wvqx27n46ckqdt6dl4gm0000gn/T/3a83e5cf02dd4a8b8cd7b2ce8680aa75-pulp.sol'

